;test regex sed -r 's/([0-9]{4})-([0-9]{2})-([0-9]{2})/\1.\2.\3/' <<< 'abc-def-ghi-2017-10-31'
(declare-const X String)
(assert (str.in_re X (re.++ (str.to_re "s") (re.++ (str.to_re "e") (re.++ (str.to_re "d") (re.++ (str.to_re " ") (re.++ (str.to_re "-") (re.++ (str.to_re "r") (re.++ (str.to_re " ") (re.++ (str.to_re "\u{27}") (re.++ (str.to_re "s") (re.++ (str.to_re "/") (re.++ ((_ re.loop 4 4) (re.range "0" "9")) (re.++ (str.to_re "-") (re.++ ((_ re.loop 2 2) (re.range "0" "9")) (re.++ (str.to_re "-") (re.++ ((_ re.loop 2 2) (re.range "0" "9")) (re.++ (str.to_re "/") (re.++ (_ re.reference 1) (re.++ (re.diff re.allchar (str.to_re "\n")) (re.++ (_ re.reference 2) (re.++ (re.diff re.allchar (str.to_re "\n")) (re.++ (_ re.reference 3) (re.++ (str.to_re "/") (re.++ (str.to_re "\u{27}") (re.++ (str.to_re " ") (re.++ (str.to_re "<") (re.++ (str.to_re "<") (re.++ (str.to_re "<") (re.++ (str.to_re " ") (re.++ (str.to_re "\u{27}") (re.++ (str.to_re "a") (re.++ (str.to_re "b") (re.++ (str.to_re "c") (re.++ (str.to_re "-") (re.++ (str.to_re "d") (re.++ (str.to_re "e") (re.++ (str.to_re "f") (re.++ (str.to_re "-") (re.++ (str.to_re "g") (re.++ (str.to_re "h") (re.++ (str.to_re "i") (re.++ (str.to_re "-") (re.++ (str.to_re "2017") (re.++ (str.to_re "-") (re.++ (str.to_re "10") (re.++ (str.to_re "-") (re.++ (str.to_re "31") (str.to_re "\u{27}")))))))))))))))))))))))))))))))))))))))))))))))))
; sanitize danger characters:  < > ' " &
(assert (not (str.in_re X (re.++ re.all (re.union (str.to_re "\u{3c}") (str.to_re "\u{3e}") (str.to_re "\u{27}") (str.to_re "\u{22}") (str.to_re "\u{26}")) re.all))))
(assert (< 9 (str.len X)))
(check-sat)
(get-model)